(set-logic QF_S)
(declare-fun var0 () String)
(declare-fun var1 () String)
(declare-fun var2 () String)
(declare-fun var3 () String)
(declare-fun var4 () String)
(declare-fun var5 () String)
(declare-fun var7 () String)
(declare-fun var8 () String)
(declare-fun var9 () String)
(declare-fun var10 () String)
(declare-fun var11 () String)
(declare-fun var12 () String)
(declare-fun var13 () String)
(declare-fun var14 () String)
(declare-fun var15 () String)
(declare-fun var16 () String)
(declare-fun var17 () String)
(declare-fun var18 () String)
(declare-fun var19 () String)
(declare-fun var20 () String)
(declare-fun var21 () String)
(declare-fun var22 () String)
(declare-fun var23 () String)
(declare-fun var24 () String)
(declare-fun var26 () String)
(declare-fun var6 () Int)
(declare-fun var25 () Int)

(assert (> (str.indexof var15 var16 var6) (str.indexof var11 var17 var6)))
(assert (str.prefixof (str.at (str.substr var10 0 364) (str.indexof var8 var14 var6)) (str.at (str.replace var5 var18 var8) (str.len var16))))
(assert (str.contains (str.replace var5 var26 var14) (str.substr var14 0 1320)))
(assert (= var14 "A1JTTl1we7JeB53KFGsu5YYTTketlK3HT71h3CJzWdXoSZ2EoHjEvmNQECpCWLc9evQQqPWHCdtHrk36jM9mvwyCL7ihcHV3SgIkHzSBEEm4BHhFy5i2p7BS2p7sZvQGa2SEVpkH7hEI7CNRFkXkO4h3ojVfXoSaGRx3nTPkyHJKdfJX8ivgMAKE73xP8eWw0H57El1AqwBZLrCEMSZOSkjUh6GEawf76BUn98zhAbY5X8tZGvgz7NpfrK3znXh5vXCfdTWxre3dujWkF2UkJUXTzQla6AKqhfAXx3HRftCQfz9ocks0TGUBPMjA4V6IGEK3FouV5oA1JTTl1we7JeB53KFGsu5YYTTketlK3HT71h3CJzWdXoSZ2EoHjEvmNQECpCWLc9evQQqPWHCdtHrk36jM9mvwyCL7ihcHV3SgIkHzSBEEm4BHhFy5i2p7BS2p7sZvQGa2SEVpkH7hEI7CNRFkXkO4h3ojVfXoSaGRx3nTPkyHJKdfJX8ivgMAKE73xP8eWw0H57El1AqwBZLrCEMSZOSkjUh6GEawf76BUn98zhAbY5X8tZGvgz7NpfrK3znXh5vXCfdTWxre3dujWkF2UkJUXTzQla6AKqhfAXx3HRftCQfz9ocks0TGUBPMjA4V6IGEK3FouV5oA1JTTl1we7JeB53KFGsu5YYTTketlK3HT71h3CJzWdXoSZ2EoHjEvmNQECpCWLc9evQQqPWHCdtHrk36jM9mvwyCL7ihcHV3SgIkHzSBEEm4BHhFy5i2p7BS2p7sZvQGa2SEVpkH7hEI7CNRFkXkO4h3ojVfXoSaGRx3nTPkyHJKdfJX8ivgMAKE73xP8eWw0H57El1AqwBZLrCEMSZOSkjUh6GEawf76BUn98zhAbY5X8tZGvgz7NpfrK3znXh5vXCfdTWxre3dujWkF2UkJUXTzQla6AKqhfAXx3HRftCQfz9ocks0TGUBPMjA4V6IGEK3FouV5o9ns2ustYQHhIp6AxodEBMwYynM4pSht3KZxrzodEiDfO9TsSadGocImJf42wAA8ogWT0C0ZV7tYiB8RiheGWESpj0OGzvSqaASZkvdHuqRPzkSZFuImaaoUXzmzcdjTuWcQszkJHeVXia8fyKYr0aVs0y4cOZSw0XU1epajD4clix7x9tO8BDB1A9YT8OKmDXSNWsdkZfIvuV3PKSyxnz9mbiRahb1IM8XiTkTr9MLAWXSN25SlijqAWR8xbgwmQd5VmKICOuy76mU3dmLAqoAlIz2QtrtNvPQoYqg8DpqFNo0g32SbuCEo8C0uFiUAaxEnrGArbtZQQX9JzZFcm7EBInjhq43T4cKxk96I6K5A78Q"))
(assert (= var16 ""))

(assert (= (str.len var26) 5))
(check-sat)
